(set-logic QF_S)
(declare-fun T_12 () Bool)
(declare-fun T_13 () Bool)
(declare-fun T_SELECT_4 () Bool)
(declare-fun T_SELECT_5 () Bool)
(declare-fun T_c () Bool)
(declare-fun T_e () Bool)
(declare-fun T_f () Bool)
(declare-fun I0_23 () Int)
(declare-fun I1_23 () Int)
(declare-fun I2_23 () Int)
(declare-fun PCTEMP_LHS_4 () Int)
(declare-fun PCTEMP_LHS_5 () Int)
(declare-fun T_10 () Int)
(declare-fun NEW_DGNode_263 () String)
(declare-fun NEW_DGNode_267 () String)
(declare-fun NEW_DGNode_271 () String)
(declare-fun NEW_DGNode_275 () String)
(declare-fun NEW_DGNode_279 () String)
(declare-fun NEW_DGNode_283 () String)
(declare-fun PCTEMP_LHS_6 () String)
(declare-fun T_61 () String)
(declare-fun T_62 () String)
(declare-fun T_63 () String)
(declare-fun T_64 () String)
(declare-fun T_65 () String)
(declare-fun T_66 () String)
(assert (= T_66 (str.++ T_65 NEW_DGNode_283)))
(assert (= T_65 (str.++ T_64 NEW_DGNode_279)))
(assert (= T_64 (str.++ T_63 NEW_DGNode_275)))
(assert (= T_63 (str.++ T_62 NEW_DGNode_271)))
(assert (= T_62 (str.++ T_61 NEW_DGNode_267)))
(assert (= T_61 (str.++ NEW_DGNode_263 PCTEMP_LHS_6)))
(assert (= NEW_DGNode_263 "__utmb="))
(assert (= PCTEMP_LHS_6 "-"))
(assert (= NEW_DGNode_267 ";"))
(assert (= NEW_DGNode_271 "/"))
(assert (= NEW_DGNode_275 ";"))
(assert (= NEW_DGNode_279 ""))
(assert (= NEW_DGNode_283 ""))
(assert (= T_SELECT_5 (not (= PCTEMP_LHS_5 (- 1)))))
(assert T_f)
(assert (= T_f (not T_e)))
(assert (= T_e (< PCTEMP_LHS_5 0)))
(assert (= T_SELECT_4 (not (= PCTEMP_LHS_4 (- 1)))))
(assert T_c)
(assert (= T_c (< (- 1) PCTEMP_LHS_4)))
(assert (= T_10 (+ PCTEMP_LHS_4 7)))
(assert (>= T_10 0))
(assert (>= PCTEMP_LHS_5 T_10))
(assert (= I2_23 I1_23))
(assert (<= PCTEMP_LHS_5 I1_23))
(assert (= I0_23 (- PCTEMP_LHS_5 T_10)))
(assert (= I0_23 (str.len PCTEMP_LHS_6))) ; len 0
(assert T_12)
(assert T_13)
(assert (= T_13 (not T_12)))
(check-sat)
